(set-logic QF_LRA)
(declare-fun X0 () Real )
(declare-fun Y0 () Real )
(declare-fun X1 () Real )
(declare-fun Y1 () Real )
(declare-fun X2 () Real )
(declare-fun Y2 () Real )
(declare-fun X3 () Real )
(declare-fun Y3 () Real )
(declare-fun X4 () Real )
(declare-fun Y4 () Real )
(declare-fun X5 () Real )
(declare-fun Y5 () Real )
(declare-fun X6 () Real )
(declare-fun Y6 () Real )
(declare-fun X7 () Real )
(declare-fun Y7 () Real )
(declare-fun X8 () Real )
(declare-fun Y8 () Real )
(declare-fun X9 () Real )
(declare-fun Y9 () Real )
(declare-fun X10 () Real )
(declare-fun Y10 () Real )
(declare-fun X11 () Real )
(declare-fun Y11 () Real )
(declare-fun Z () Real )
(assert ( and  
( or ( <= ( + X0 84 ) X1 )  ( <= ( + X1 92 ) X0 )  ( <= ( + Y0 31 ) Y1 )  ( <= ( + Y1 86 ) Y0 )  )
( or ( <= ( + X0 84 ) X2 )  ( <= ( + X2 18 ) X0 )  ( <= ( + Y0 31 ) Y2 )  ( <= ( + Y2 19 ) Y0 )  )
( or ( <= ( + X0 84 ) X3 )  ( <= ( + X3 7 ) X0 )  ( <= ( + Y0 31 ) Y3 )  ( <= ( + Y3 4 ) Y0 )  )
( or ( <= ( + X0 84 ) X4 )  ( <= ( + X4 95 ) X0 )  ( <= ( + Y0 31 ) Y4 )  ( <= ( + Y4 30 ) Y0 )  )
( or ( <= ( + X0 84 ) X5 )  ( <= ( + X5 17 ) X0 )  ( <= ( + Y0 31 ) Y5 )  ( <= ( + Y5 57 ) Y0 )  )
( or ( <= ( + X0 84 ) X6 )  ( <= ( + X6 96 ) X0 )  ( <= ( + Y0 31 ) Y6 )  ( <= ( + Y6 83 ) Y0 )  )
( or ( <= ( + X0 84 ) X7 )  ( <= ( + X7 22 ) X0 )  ( <= ( + Y0 31 ) Y7 )  ( <= ( + Y7 59 ) Y0 )  )
( or ( <= ( + X0 84 ) X8 )  ( <= ( + X8 6 ) X0 )  ( <= ( + Y0 31 ) Y8 )  ( <= ( + Y8 88 ) Y0 )  )
( or ( <= ( + X0 84 ) X9 )  ( <= ( + X9 81 ) X0 )  ( <= ( + Y0 31 ) Y9 )  ( <= ( + Y9 15 ) Y0 )  )
( or ( <= ( + X0 84 ) X10 )  ( <= ( + X10 33 ) X0 )  ( <= ( + Y0 31 ) Y10 )  ( <= ( + Y10 1 ) Y0 )  )
( or ( <= ( + X0 84 ) X11 )  ( <= ( + X11 28 ) X0 )  ( <= ( + Y0 31 ) Y11 )  ( <= ( + Y11 81 ) Y0 )  )
( or ( <= ( + X1 92 ) X2 )  ( <= ( + X2 18 ) X1 )  ( <= ( + Y1 86 ) Y2 )  ( <= ( + Y2 19 ) Y1 )  )
( or ( <= ( + X1 92 ) X3 )  ( <= ( + X3 7 ) X1 )  ( <= ( + Y1 86 ) Y3 )  ( <= ( + Y3 4 ) Y1 )  )
( or ( <= ( + X1 92 ) X4 )  ( <= ( + X4 95 ) X1 )  ( <= ( + Y1 86 ) Y4 )  ( <= ( + Y4 30 ) Y1 )  )
( or ( <= ( + X1 92 ) X5 )  ( <= ( + X5 17 ) X1 )  ( <= ( + Y1 86 ) Y5 )  ( <= ( + Y5 57 ) Y1 )  )
( or ( <= ( + X1 92 ) X6 )  ( <= ( + X6 96 ) X1 )  ( <= ( + Y1 86 ) Y6 )  ( <= ( + Y6 83 ) Y1 )  )
( or ( <= ( + X1 92 ) X7 )  ( <= ( + X7 22 ) X1 )  ( <= ( + Y1 86 ) Y7 )  ( <= ( + Y7 59 ) Y1 )  )
( or ( <= ( + X1 92 ) X8 )  ( <= ( + X8 6 ) X1 )  ( <= ( + Y1 86 ) Y8 )  ( <= ( + Y8 88 ) Y1 )  )
( or ( <= ( + X1 92 ) X9 )  ( <= ( + X9 81 ) X1 )  ( <= ( + Y1 86 ) Y9 )  ( <= ( + Y9 15 ) Y1 )  )
( or ( <= ( + X1 92 ) X10 )  ( <= ( + X10 33 ) X1 )  ( <= ( + Y1 86 ) Y10 )  ( <= ( + Y10 1 ) Y1 )  )
( or ( <= ( + X1 92 ) X11 )  ( <= ( + X11 28 ) X1 )  ( <= ( + Y1 86 ) Y11 )  ( <= ( + Y11 81 ) Y1 )  )
( or ( <= ( + X2 18 ) X3 )  ( <= ( + X3 7 ) X2 )  ( <= ( + Y2 19 ) Y3 )  ( <= ( + Y3 4 ) Y2 )  )
( or ( <= ( + X2 18 ) X4 )  ( <= ( + X4 95 ) X2 )  ( <= ( + Y2 19 ) Y4 )  ( <= ( + Y4 30 ) Y2 )  )
( or ( <= ( + X2 18 ) X5 )  ( <= ( + X5 17 ) X2 )  ( <= ( + Y2 19 ) Y5 )  ( <= ( + Y5 57 ) Y2 )  )
( or ( <= ( + X2 18 ) X6 )  ( <= ( + X6 96 ) X2 )  ( <= ( + Y2 19 ) Y6 )  ( <= ( + Y6 83 ) Y2 )  )
( or ( <= ( + X2 18 ) X7 )  ( <= ( + X7 22 ) X2 )  ( <= ( + Y2 19 ) Y7 )  ( <= ( + Y7 59 ) Y2 )  )
( or ( <= ( + X2 18 ) X8 )  ( <= ( + X8 6 ) X2 )  ( <= ( + Y2 19 ) Y8 )  ( <= ( + Y8 88 ) Y2 )  )
( or ( <= ( + X2 18 ) X9 )  ( <= ( + X9 81 ) X2 )  ( <= ( + Y2 19 ) Y9 )  ( <= ( + Y9 15 ) Y2 )  )
( or ( <= ( + X2 18 ) X10 )  ( <= ( + X10 33 ) X2 )  ( <= ( + Y2 19 ) Y10 )  ( <= ( + Y10 1 ) Y2 )  )
( or ( <= ( + X2 18 ) X11 )  ( <= ( + X11 28 ) X2 )  ( <= ( + Y2 19 ) Y11 )  ( <= ( + Y11 81 ) Y2 )  )
( or ( <= ( + X3 7 ) X4 )  ( <= ( + X4 95 ) X3 )  ( <= ( + Y3 4 ) Y4 )  ( <= ( + Y4 30 ) Y3 )  )
( or ( <= ( + X3 7 ) X5 )  ( <= ( + X5 17 ) X3 )  ( <= ( + Y3 4 ) Y5 )  ( <= ( + Y5 57 ) Y3 )  )
( or ( <= ( + X3 7 ) X6 )  ( <= ( + X6 96 ) X3 )  ( <= ( + Y3 4 ) Y6 )  ( <= ( + Y6 83 ) Y3 )  )
( or ( <= ( + X3 7 ) X7 )  ( <= ( + X7 22 ) X3 )  ( <= ( + Y3 4 ) Y7 )  ( <= ( + Y7 59 ) Y3 )  )
( or ( <= ( + X3 7 ) X8 )  ( <= ( + X8 6 ) X3 )  ( <= ( + Y3 4 ) Y8 )  ( <= ( + Y8 88 ) Y3 )  )
( or ( <= ( + X3 7 ) X9 )  ( <= ( + X9 81 ) X3 )  ( <= ( + Y3 4 ) Y9 )  ( <= ( + Y9 15 ) Y3 )  )
( or ( <= ( + X3 7 ) X10 )  ( <= ( + X10 33 ) X3 )  ( <= ( + Y3 4 ) Y10 )  ( <= ( + Y10 1 ) Y3 )  )
( or ( <= ( + X3 7 ) X11 )  ( <= ( + X11 28 ) X3 )  ( <= ( + Y3 4 ) Y11 )  ( <= ( + Y11 81 ) Y3 )  )
( or ( <= ( + X4 95 ) X5 )  ( <= ( + X5 17 ) X4 )  ( <= ( + Y4 30 ) Y5 )  ( <= ( + Y5 57 ) Y4 )  )
( or ( <= ( + X4 95 ) X6 )  ( <= ( + X6 96 ) X4 )  ( <= ( + Y4 30 ) Y6 )  ( <= ( + Y6 83 ) Y4 )  )
( or ( <= ( + X4 95 ) X7 )  ( <= ( + X7 22 ) X4 )  ( <= ( + Y4 30 ) Y7 )  ( <= ( + Y7 59 ) Y4 )  )
( or ( <= ( + X4 95 ) X8 )  ( <= ( + X8 6 ) X4 )  ( <= ( + Y4 30 ) Y8 )  ( <= ( + Y8 88 ) Y4 )  )
( or ( <= ( + X4 95 ) X9 )  ( <= ( + X9 81 ) X4 )  ( <= ( + Y4 30 ) Y9 )  ( <= ( + Y9 15 ) Y4 )  )
( or ( <= ( + X4 95 ) X10 )  ( <= ( + X10 33 ) X4 )  ( <= ( + Y4 30 ) Y10 )  ( <= ( + Y10 1 ) Y4 )  )
( or ( <= ( + X4 95 ) X11 )  ( <= ( + X11 28 ) X4 )  ( <= ( + Y4 30 ) Y11 )  ( <= ( + Y11 81 ) Y4 )  )
( or ( <= ( + X5 17 ) X6 )  ( <= ( + X6 96 ) X5 )  ( <= ( + Y5 57 ) Y6 )  ( <= ( + Y6 83 ) Y5 )  )
( or ( <= ( + X5 17 ) X7 )  ( <= ( + X7 22 ) X5 )  ( <= ( + Y5 57 ) Y7 )  ( <= ( + Y7 59 ) Y5 )  )
( or ( <= ( + X5 17 ) X8 )  ( <= ( + X8 6 ) X5 )  ( <= ( + Y5 57 ) Y8 )  ( <= ( + Y8 88 ) Y5 )  )
( or ( <= ( + X5 17 ) X9 )  ( <= ( + X9 81 ) X5 )  ( <= ( + Y5 57 ) Y9 )  ( <= ( + Y9 15 ) Y5 )  )
( or ( <= ( + X5 17 ) X10 )  ( <= ( + X10 33 ) X5 )  ( <= ( + Y5 57 ) Y10 )  ( <= ( + Y10 1 ) Y5 )  )
( or ( <= ( + X5 17 ) X11 )  ( <= ( + X11 28 ) X5 )  ( <= ( + Y5 57 ) Y11 )  ( <= ( + Y11 81 ) Y5 )  )
( or ( <= ( + X6 96 ) X7 )  ( <= ( + X7 22 ) X6 )  ( <= ( + Y6 83 ) Y7 )  ( <= ( + Y7 59 ) Y6 )  )
( or ( <= ( + X6 96 ) X8 )  ( <= ( + X8 6 ) X6 )  ( <= ( + Y6 83 ) Y8 )  ( <= ( + Y8 88 ) Y6 )  )
( or ( <= ( + X6 96 ) X9 )  ( <= ( + X9 81 ) X6 )  ( <= ( + Y6 83 ) Y9 )  ( <= ( + Y9 15 ) Y6 )  )
( or ( <= ( + X6 96 ) X10 )  ( <= ( + X10 33 ) X6 )  ( <= ( + Y6 83 ) Y10 )  ( <= ( + Y10 1 ) Y6 )  )
( or ( <= ( + X6 96 ) X11 )  ( <= ( + X11 28 ) X6 )  ( <= ( + Y6 83 ) Y11 )  ( <= ( + Y11 81 ) Y6 )  )
( or ( <= ( + X7 22 ) X8 )  ( <= ( + X8 6 ) X7 )  ( <= ( + Y7 59 ) Y8 )  ( <= ( + Y8 88 ) Y7 )  )
( or ( <= ( + X7 22 ) X9 )  ( <= ( + X9 81 ) X7 )  ( <= ( + Y7 59 ) Y9 )  ( <= ( + Y9 15 ) Y7 )  )
( or ( <= ( + X7 22 ) X10 )  ( <= ( + X10 33 ) X7 )  ( <= ( + Y7 59 ) Y10 )  ( <= ( + Y10 1 ) Y7 )  )
( or ( <= ( + X7 22 ) X11 )  ( <= ( + X11 28 ) X7 )  ( <= ( + Y7 59 ) Y11 )  ( <= ( + Y11 81 ) Y7 )  )
( or ( <= ( + X8 6 ) X9 )  ( <= ( + X9 81 ) X8 )  ( <= ( + Y8 88 ) Y9 )  ( <= ( + Y9 15 ) Y8 )  )
( or ( <= ( + X8 6 ) X10 )  ( <= ( + X10 33 ) X8 )  ( <= ( + Y8 88 ) Y10 )  ( <= ( + Y10 1 ) Y8 )  )
( or ( <= ( + X8 6 ) X11 )  ( <= ( + X11 28 ) X8 )  ( <= ( + Y8 88 ) Y11 )  ( <= ( + Y11 81 ) Y8 )  )
( or ( <= ( + X9 81 ) X10 )  ( <= ( + X10 33 ) X9 )  ( <= ( + Y9 15 ) Y10 )  ( <= ( + Y10 1 ) Y9 )  )
( or ( <= ( + X9 81 ) X11 )  ( <= ( + X11 28 ) X9 )  ( <= ( + Y9 15 ) Y11 )  ( <= ( + Y11 81 ) Y9 )  )
( or ( <= ( + X10 33 ) X11 )  ( <= ( + X11 28 ) X10 )  ( <= ( + Y10 1 ) Y11 )  ( <= ( + Y11 81 ) Y10 )  )
( >= X0 0)
( <= ( + X0 84) Z)
( >= Y0 0)
( <= ( + Y0 31 ) 173)
( >= X1 0)
( <= ( + X1 92) Z)
( >= Y1 0)
( <= ( + Y1 86 ) 173)
( >= X2 0)
( <= ( + X2 18) Z)
( >= Y2 0)
( <= ( + Y2 19 ) 173)
( >= X3 0)
( <= ( + X3 7) Z)
( >= Y3 0)
( <= ( + Y3 4 ) 173)
( >= X4 0)
( <= ( + X4 95) Z)
( >= Y4 0)
( <= ( + Y4 30 ) 173)
( >= X5 0)
( <= ( + X5 17) Z)
( >= Y5 0)
( <= ( + Y5 57 ) 173)
( >= X6 0)
( <= ( + X6 96) Z)
( >= Y6 0)
( <= ( + Y6 83 ) 173)
( >= X7 0)
( <= ( + X7 22) Z)
( >= Y7 0)
( <= ( + Y7 59 ) 173)
( >= X8 0)
( <= ( + X8 6) Z)
( >= Y8 0)
( <= ( + Y8 88 ) 173)
( >= X9 0)
( <= ( + X9 81) Z)
( >= Y9 0)
( <= ( + Y9 15 ) 173)
( >= X10 0)
( <= ( + X10 33) Z)
( >= Y10 0)
( <= ( + Y10 1 ) 173)
( >= X11 0)
( <= ( + X11 28) Z)
( >= Y11 0)
( <= ( + Y11 81 ) 173)
) )
(minimize Z)
(check-sat)
